DATASET = "thpack2";
INSTANCE = "002";

WIDTH = 233;
HEIGHT = 220;
LENGTH = 587;

NO_OF_SHAPES = 5;
size = [|
  49,25,21 |
  60,51,41 |
  103,76,64 |
  95,70,62 |
  111,49,26 |
|];

verticality = [|
  0,1,1 |
  1,1,1 |
  1,1,1 |
  1,1,1 |
  0,1,1 |
|];

box_count = [
  22,
  22,
  28,
  25,
  17,
];
